decision_x1=[0,7];
decision_x2=[0,7];
decision_x3=[0,7];
decision_x4=[0,7];
decision_x5=[0,7];
decision_x6=[0,7];
decision_x7=[0,7];
decision_x8=[0,7];
decision_x9=[0,7];
decision_x10=[0,7];
decision_x11=[0,7];
decision_x12=[0,7];
decision_x13=[0,7];
decision_x14=[0,7];
decision_x15=[0,7];
decision_x16=[0,7];
decision_x17=[0,7];
decision_x18=[0,7];
decision_x19=[0,7];
decision_x20=[0,7];
random_y1=[0,7];
random_y2=[0,7];
random_y3=[0,7];
random_y4=[0,7];
random_y5=[0,7];
random_y6=[0,7];
random_y7=[0,7];
random_y8=[0,7];
random_y9=[0,7];
constraint_x2_x1=[
0,0,6.7|
0,1,1.7|
0,2,5.3|
0,3,0.29|
0,4,5.1|
0,5,6.8|
0,6,0.14|
0,7,8.3|
1,0,1.8|
1,1,7.1|
1,2,0.64|
1,3,4.4|
1,4,5|
1,5,8.4|
1,6,1.5|
1,7,2.6|
2,0,4.4|
2,1,7.8|
2,2,6|
2,3,8.7|
2,4,9.9|
2,5,8.9|
2,6,6.4|
2,7,1.7|
3,0,6.9|
3,1,5.5|
3,2,2|
3,3,0.48|
3,4,8.3|
3,5,0.99|
3,6,3.3|
3,7,2|
4,0,8|
4,1,7.3|
4,2,2.7|
4,3,0.054|
4,4,2.1|
4,5,8.9|
4,6,3.6|
4,7,9.8|
5,0,0.027|
5,1,0.69|
5,2,8.1|
5,3,3.7|
5,4,0.6|
5,5,3.4|
5,6,0.27|
5,7,7.8|
6,0,5.9|
6,1,3|
6,2,2.8|
6,3,10|
6,4,3.2|
6,5,8.7|
6,6,4.5|
6,7,9.2|
7,0,4.3|
7,1,4.4|
7,2,4.7|
7,3,5.8|
7,4,0.24|
7,5,6.4|
7,6,1.4|
7,7,3.1|
];
constraint_x3_x2=[
0,0,2.6|
0,1,2.1|
0,2,9.6|
0,3,5.7|
0,4,7.7|
0,5,5|
0,6,4.3|
0,7,0.75|
1,0,1.5|
1,1,4.6|
1,2,1.7|
1,3,5.7|
1,4,5.2|
1,5,4.7|
1,6,8.9|
1,7,6.6|
2,0,1.3|
2,1,2.1|
2,2,0.084|
2,3,3.4|
2,4,0.7|
2,5,1.1|
2,6,9.7|
2,7,9.5|
3,0,5.6|
3,1,3.4|
3,2,1.1|
3,3,4.8|
3,4,1.8|
3,5,1.4|
3,6,8.8|
3,7,5|
4,0,6.7|
4,1,8|
4,2,2.9|
4,3,3.8|
4,4,3.4|
4,5,3.2|
4,6,4.5|
4,7,2.1|
5,0,8.7|
5,1,4|
5,2,8.8|
5,3,6.3|
5,4,9.2|
5,5,9.2|
5,6,3.7|
5,7,7.8|
6,0,0.99|
6,1,9.1|
6,2,7.5|
6,3,2.2|
6,4,7.2|
6,5,0.76|
6,6,6.2|
6,7,5.4|
7,0,3|
7,1,9.8|
7,2,0.99|
7,3,7.4|
7,4,2.4|
7,5,9.4|
7,6,8.9|
7,7,8.1|
];
constraint_x4_x3=[
0,0,1.3|
0,1,0.37|
0,2,6.7|
0,3,1.3|
0,4,8.6|
0,5,3.2|
0,6,3.8|
0,7,7.8|
1,0,7|
1,1,3.4|
1,2,8.4|
1,3,3.5|
1,4,3.6|
1,5,2.5|
1,6,9.3|
1,7,9.6|
2,0,6.2|
2,1,2.3|
2,2,1.8|
2,3,6.4|
2,4,2|
2,5,7.2|
2,6,0.66|
2,7,6.1|
3,0,6.7|
3,1,8.5|
3,2,2.5|
3,3,4.2|
3,4,0.71|
3,5,6.4|
3,6,0.78|
3,7,1.1|
4,0,2.9|
4,1,2.5|
4,2,8.2|
4,3,3.4|
4,4,9.4|
4,5,5.6|
4,6,4.6|
4,7,9.1|
5,0,5.8|
5,1,2.1|
5,2,7.7|
5,3,2.9|
5,4,4.8|
5,5,3.5|
5,6,7.1|
5,7,4.8|
6,0,7.8|
6,1,8.1|
6,2,9.5|
6,3,9.2|
6,4,7.9|
6,5,5.5|
6,6,8.8|
6,7,8.6|
7,0,1.4|
7,1,0.12|
7,2,9.9|
7,3,0.2|
7,4,4.4|
7,5,9|
7,6,6|
7,7,9.5|
];
constraint_x5_x1=[
0,0,8.2|
0,1,4.1|
0,2,1.7|
0,3,6.4|
0,4,2.7|
0,5,3.1|
0,6,2.7|
0,7,7.3|
1,0,9.3|
1,1,4.6|
1,2,4.1|
1,3,7.8|
1,4,2.6|
1,5,0.19|
1,6,8.3|
1,7,0.015|
2,0,9.1|
2,1,4.8|
2,2,0.8|
2,3,2.9|
2,4,3.8|
2,5,6.6|
2,6,8.3|
2,7,5.9|
3,0,5.7|
3,1,8|
3,2,8.5|
3,3,8.8|
3,4,0.1|
3,5,0.68|
3,6,0.69|
3,7,7.5|
4,0,7.7|
4,1,1.5|
4,2,5.3|
4,3,7.8|
4,4,9.1|
4,5,5.4|
4,6,6.9|
4,7,8.2|
5,0,9.4|
5,1,5|
5,2,2.5|
5,3,6.7|
5,4,5.5|
5,5,6.6|
5,6,6.5|
5,7,7.7|
6,0,7.4|
6,1,1.1|
6,2,10|
6,3,9|
6,4,0.35|
6,5,6.6|
6,6,9|
6,7,1.4|
7,0,3.5|
7,1,6.4|
7,2,5.5|
7,3,2.7|
7,4,3.3|
7,5,8.4|
7,6,2.8|
7,7,4.5|
];
constraint_x6_x2=[
0,0,0.37|
0,1,4.9|
0,2,1.4|
0,3,0.5|
0,4,2.3|
0,5,2.4|
0,6,0.18|
0,7,8.7|
1,0,4.7|
1,1,5.6|
1,2,5.9|
1,3,7.9|
1,4,0.75|
1,5,6.4|
1,6,0.86|
1,7,3.3|
2,0,4|
2,1,6.3|
2,2,1.2|
2,3,7.9|
2,4,0.012|
2,5,0.5|
2,6,5.7|
2,7,5|
3,0,0.2|
3,1,6.2|
3,2,9.8|
3,3,1.4|
3,4,8.7|
3,5,9.9|
3,6,2.2|
3,7,6.2|
4,0,0.54|
4,1,9.7|
4,2,7.3|
4,3,7.2|
4,4,0.69|
4,5,3.4|
4,6,6|
4,7,7.9|
5,0,4.9|
5,1,0.11|
5,2,3.7|
5,3,8.9|
5,4,6.9|
5,5,6.9|
5,6,5.6|
5,7,0.012|
6,0,4.3|
6,1,4.7|
6,2,7.4|
6,3,2.2|
6,4,7|
6,5,0.77|
6,6,9.1|
6,7,7.5|
7,0,9.4|
7,1,4.5|
7,2,1.4|
7,3,8.8|
7,4,9.2|
7,5,5.3|
7,6,8|
7,7,7.8|
];
constraint_x6_x5=[
0,0,7|
0,1,9.9|
0,2,2.2|
0,3,3.4|
0,4,3.3|
0,5,5.6|
0,6,9.3|
0,7,5.1|
1,0,2.1|
1,1,3.4|
1,2,6.7|
1,3,8.1|
1,4,5.2|
1,5,1.3|
1,6,9|
1,7,9|
2,0,4|
2,1,3.5|
2,2,8.4|
2,3,9.1|
2,4,3.4|
2,5,8.9|
2,6,3.8|
2,7,6.5|
3,0,5|
3,1,0.25|
3,2,6.3|
3,3,9.2|
3,4,6.4|
3,5,4.7|
3,6,0.32|
3,7,2|
4,0,8.7|
4,1,0.24|
4,2,9.7|
4,3,4.3|
4,4,1.9|
4,5,1.1|
4,6,5.5|
4,7,7.6|
5,0,4.8|
5,1,4.8|
5,2,5.8|
5,3,1.3|
5,4,5|
5,5,0.27|
5,6,5.7|
5,7,0.71|
6,0,1.3|
6,1,7.1|
6,2,1.6|
6,3,6|
6,4,7.4|
6,5,4.3|
6,6,8.6|
6,7,4.7|
7,0,3.9|
7,1,2.5|
7,2,6.9|
7,3,9.3|
7,4,6.9|
7,5,1.5|
7,6,4.1|
7,7,7.2|
];
constraint_x7_x3=[
0,0,1.2|
0,1,0.32|
0,2,6|
0,3,8.8|
0,4,2.7|
0,5,9.1|
0,6,8.8|
0,7,5.9|
1,0,7.9|
1,1,5.4|
1,2,6.1|
1,3,2.4|
1,4,6.7|
1,5,8.8|
1,6,9.7|
1,7,1.8|
2,0,2.6|
2,1,6|
2,2,6.6|
2,3,4.4|
2,4,8.5|
2,5,8.6|
2,6,6.7|
2,7,1.1|
3,0,5.6|
3,1,3|
3,2,7.8|
3,3,9|
3,4,9.6|
3,5,4.3|
3,6,3.2|
3,7,4.9|
4,0,0.64|
4,1,0.036|
4,2,4.1|
4,3,3.1|
4,4,0.92|
4,5,6.8|
4,6,1.2|
4,7,2.1|
5,0,0.81|
5,1,3.8|
5,2,2.3|
5,3,1.5|
5,4,6.2|
5,5,7.7|
5,6,6.9|
5,7,3.4|
6,0,9.3|
6,1,8.8|
6,2,7.7|
6,3,5.1|
6,4,7.7|
6,5,5.8|
6,6,3.6|
6,7,9|
7,0,4.6|
7,1,0.11|
7,2,5.6|
7,3,7.7|
7,4,5.9|
7,5,5.9|
7,6,0.4|
7,7,4|
];
constraint_x7_x6=[
0,0,2.5|
0,1,5.8|
0,2,0.3|
0,3,2|
0,4,1.9|
0,5,6.3|
0,6,2.5|
0,7,2.4|
1,0,7.2|
1,1,2.5|
1,2,5.3|
1,3,9.1|
1,4,1.1|
1,5,1.9|
1,6,8.1|
1,7,8.8|
2,0,9.5|
2,1,2.4|
2,2,7.9|
2,3,5.2|
2,4,7.6|
2,5,2.5|
2,6,2|
2,7,3.3|
3,0,1.9|
3,1,4.4|
3,2,4.3|
3,3,8.8|
3,4,8.2|
3,5,3|
3,6,9.4|
3,7,1.7|
4,0,1.7|
4,1,4.1|
4,2,2.2|
4,3,6.2|
4,4,8|
4,5,8.4|
4,6,6.4|
4,7,8.4|
5,0,8.7|
5,1,2.2|
5,2,7.4|
5,3,4.9|
5,4,3|
5,5,4.9|
5,6,8.8|
5,7,0.61|
6,0,5.3|
6,1,4.7|
6,2,0.78|
6,3,5.2|
6,4,2.1|
6,5,5|
6,6,5.1|
6,7,2.7|
7,0,3.7|
7,1,4.9|
7,2,8.2|
7,3,4.7|
7,4,5.9|
7,5,1.9|
7,6,9.2|
7,7,8.5|
];
constraint_x8_x4=[
0,0,6.3|
0,1,2.8|
0,2,1.9|
0,3,9.3|
0,4,9.4|
0,5,3.2|
0,6,6.4|
0,7,2.6|
1,0,5.7|
1,1,0.13|
1,2,3.6|
1,3,2.1|
1,4,0.68|
1,5,7.1|
1,6,8.8|
1,7,8.8|
2,0,9|
2,1,3.6|
2,2,1.4|
2,3,8.3|
2,4,6.6|
2,5,3.4|
2,6,8.8|
2,7,7|
3,0,7.4|
3,1,4|
3,2,5.8|
3,3,9|
3,4,5|
3,5,5|
3,6,7.4|
3,7,7.2|
4,0,1.8|
4,1,5.9|
4,2,7.9|
4,3,2.4|
4,4,0.95|
4,5,7.6|
4,6,0.9|
4,7,6.4|
5,0,1.3|
5,1,3.2|
5,2,0.53|
5,3,8.3|
5,4,6.9|
5,5,3.4|
5,6,6.5|
5,7,8.2|
6,0,3.1|
6,1,4.9|
6,2,6.7|
6,3,9.2|
6,4,3.2|
6,5,6.2|
6,6,2.3|
6,7,7|
7,0,3.4|
7,1,2.3|
7,2,9.8|
7,3,6.4|
7,4,6.7|
7,5,2|
7,6,8.6|
7,7,9.8|
];
constraint_x8_x7=[
0,0,8.9|
0,1,8.4|
0,2,1.7|
0,3,8.6|
0,4,7.4|
0,5,2|
0,6,9.3|
0,7,4.2|
1,0,4.1|
1,1,0.89|
1,2,9.4|
1,3,0.83|
1,4,8.7|
1,5,9.6|
1,6,9.8|
1,7,8.9|
2,0,6.5|
2,1,6.5|
2,2,8.6|
2,3,8.9|
2,4,4.4|
2,5,6|
2,6,6.9|
2,7,5.8|
3,0,7.6|
3,1,9.8|
3,2,8.3|
3,3,9.8|
3,4,7.8|
3,5,8.7|
3,6,8.2|
3,7,8.2|
4,0,9.1|
4,1,4.3|
4,2,4.5|
4,3,2.4|
4,4,9.1|
4,5,4.8|
4,6,6|
4,7,0.97|
5,0,9.6|
5,1,0.3|
5,2,3.4|
5,3,8.8|
5,4,2.6|
5,5,10|
5,6,4.8|
5,7,2.9|
6,0,1.1|
6,1,4.7|
6,2,9.8|
6,3,0.5|
6,4,3.5|
6,5,8.2|
6,6,9.3|
6,7,9.9|
7,0,3.7|
7,1,9.7|
7,2,5.5|
7,3,0.2|
7,4,8.3|
7,5,6|
7,6,7.6|
7,7,0.81|
];
constraint_x9_x5=[
0,0,0.87|
0,1,7|
0,2,8.6|
0,3,0.72|
0,4,8.3|
0,5,8.7|
0,6,2.6|
0,7,7.9|
1,0,2.7|
1,1,9.4|
1,2,0.81|
1,3,1.4|
1,4,0.78|
1,5,7.6|
1,6,9.1|
1,7,2.4|
2,0,3.1|
2,1,7.6|
2,2,1.9|
2,3,0.95|
2,4,1.3|
2,5,5.7|
2,6,1.9|
2,7,0.54|
3,0,0.96|
3,1,5.5|
3,2,1.1|
3,3,8.5|
3,4,0.71|
3,5,3.2|
3,6,0.53|
3,7,6.4|
4,0,4.7|
4,1,4.4|
4,2,9.3|
4,3,6.3|
4,4,7.7|
4,5,5.9|
4,6,8.5|
4,7,5.4|
5,0,0.55|
5,1,4.1|
5,2,4|
5,3,7.3|
5,4,2.1|
5,5,1.8|
5,6,0.12|
5,7,1.4|
6,0,4.2|
6,1,3.2|
6,2,5.7|
6,3,4.9|
6,4,4.9|
6,5,3.2|
6,6,0.35|
6,7,1.8|
7,0,8.6|
7,1,3.6|
7,2,4.5|
7,3,7.9|
7,4,8.1|
7,5,2.6|
7,6,9.8|
7,7,1.3|
];
constraint_x10_x6=[
0,0,7.2|
0,1,5.4|
0,2,0.28|
0,3,9.4|
0,4,0.75|
0,5,3.6|
0,6,1.7|
0,7,2.6|
1,0,9.4|
1,1,7.8|
1,2,7.4|
1,3,1.4|
1,4,4|
1,5,5.3|
1,6,3.4|
1,7,8.4|
2,0,1.5|
2,1,8.5|
2,2,8.8|
2,3,0.22|
2,4,5.1|
2,5,1.8|
2,6,0.54|
2,7,9.4|
3,0,8.9|
3,1,4.4|
3,2,1.3|
3,3,7.8|
3,4,9.4|
3,5,4.8|
3,6,2.9|
3,7,6.1|
4,0,6.5|
4,1,3.7|
4,2,9|
4,3,0.35|
4,4,7.4|
4,5,8.5|
4,6,1.2|
4,7,7.5|
5,0,1.6|
5,1,7|
5,2,2|
5,3,9.9|
5,4,4.8|
5,5,4.7|
5,6,2.1|
5,7,7.6|
6,0,6.7|
6,1,0.67|
6,2,7.5|
6,3,9.4|
6,4,1.4|
6,5,2.9|
6,6,0.13|
6,7,4|
7,0,9.9|
7,1,9.5|
7,2,3.1|
7,3,9.6|
7,4,6|
7,5,9.8|
7,6,9.8|
7,7,5.1|
];
constraint_x10_x9=[
0,0,6.5|
0,1,8.7|
0,2,3.9|
0,3,5.4|
0,4,4.1|
0,5,9.1|
0,6,0.63|
0,7,1.6|
1,0,6.5|
1,1,0.79|
1,2,2.5|
1,3,2.1|
1,4,1.2|
1,5,9.9|
1,6,5.7|
1,7,6.7|
2,0,4|
2,1,0.19|
2,2,9.1|
2,3,9|
2,4,5.3|
2,5,6.2|
2,6,3.7|
2,7,6.6|
3,0,1.7|
3,1,4.7|
3,2,0.23|
3,3,5.6|
3,4,5.6|
3,5,2.8|
3,6,7.6|
3,7,0.76|
4,0,1.3|
4,1,9.2|
4,2,3.5|
4,3,0.51|
4,4,4.1|
4,5,3.9|
4,6,2.2|
4,7,6|
5,0,9.8|
5,1,0.66|
5,2,0.062|
5,3,5|
5,4,9|
5,5,8.9|
5,6,2.3|
5,7,0.82|
6,0,1.8|
6,1,5.7|
6,2,0.24|
6,3,3|
6,4,4.7|
6,5,3.2|
6,6,2.4|
6,7,7.2|
7,0,5.2|
7,1,6.4|
7,2,6.4|
7,3,7.1|
7,4,6.1|
7,5,8.2|
7,6,9.7|
7,7,6.7|
];
constraint_x11_x7=[
0,0,9.4|
0,1,0.017|
0,2,2.1|
0,3,8.1|
0,4,9.7|
0,5,8.8|
0,6,6.1|
0,7,1.6|
1,0,3.6|
1,1,6.5|
1,2,6|
1,3,3.1|
1,4,3.8|
1,5,9.3|
1,6,9.6|
1,7,2.4|
2,0,5.7|
2,1,0.15|
2,2,4.7|
2,3,8.4|
2,4,0.1|
2,5,2.4|
2,6,0.67|
2,7,5.8|
3,0,2.8|
3,1,3.1|
3,2,4.5|
3,3,7.7|
3,4,7.9|
3,5,9|
3,6,7.1|
3,7,5.4|
4,0,5.3|
4,1,1.3|
4,2,5.5|
4,3,0.63|
4,4,5|
4,5,8.8|
4,6,3.8|
4,7,6.3|
5,0,2.2|
5,1,4.4|
5,2,7.1|
5,3,1.3|
5,4,2|
5,5,7.7|
5,6,3.1|
5,7,2.3|
6,0,9.2|
6,1,3.4|
6,2,5.7|
6,3,3.1|
6,4,2.8|
6,5,3.2|
6,6,9.9|
6,7,7.4|
7,0,5.4|
7,1,9.2|
7,2,0.012|
7,3,9.2|
7,4,9.3|
7,5,0.5|
7,6,10|
7,7,4.7|
];
constraint_x11_x10=[
0,0,4.7|
0,1,9.7|
0,2,4.1|
0,3,4.1|
0,4,1.4|
0,5,0.32|
0,6,6.3|
0,7,6.4|
1,0,8.9|
1,1,5.5|
1,2,7.3|
1,3,8.5|
1,4,0.24|
1,5,2.9|
1,6,2|
1,7,8.3|
2,0,7.1|
2,1,1.1|
2,2,4.3|
2,3,7.6|
2,4,8.4|
2,5,7.5|
2,6,0.94|
2,7,5|
3,0,1.2|
3,1,7.8|
3,2,1.7|
3,3,0.019|
3,4,6.2|
3,5,5.1|
3,6,6.7|
3,7,8.2|
4,0,2.6|
4,1,1.8|
4,2,3.9|
4,3,7.3|
4,4,2.1|
4,5,4.3|
4,6,2.3|
4,7,0.13|
5,0,1.3|
5,1,6.9|
5,2,8.5|
5,3,7.8|
5,4,7.7|
5,5,2.7|
5,6,7.3|
5,7,5|
6,0,6.2|
6,1,2.6|
6,2,3.7|
6,3,5|
6,4,6.2|
6,5,3.9|
6,6,9.5|
6,7,6.5|
7,0,3.2|
7,1,2.6|
7,2,0.82|
7,3,6.1|
7,4,0.41|
7,5,8.4|
7,6,2.7|
7,7,6.5|
];
constraint_x12_x8=[
0,0,1.9|
0,1,3.6|
0,2,1.2|
0,3,8|
0,4,8.5|
0,5,1.2|
0,6,8.3|
0,7,3.5|
1,0,3.2|
1,1,1.1|
1,2,6.3|
1,3,4.2|
1,4,8.3|
1,5,3.9|
1,6,6.2|
1,7,2.7|
2,0,5.3|
2,1,1.6|
2,2,8.5|
2,3,3.3|
2,4,7|
2,5,0.18|
2,6,3.3|
2,7,6.7|
3,0,1.1|
3,1,0.54|
3,2,6.8|
3,3,7.2|
3,4,9.9|
3,5,0.11|
3,6,6.7|
3,7,3.7|
4,0,4.7|
4,1,0.89|
4,2,4|
4,3,3.7|
4,4,6.7|
4,5,0.32|
4,6,4.6|
4,7,5.8|
5,0,6.4|
5,1,6.2|
5,2,5.3|
5,3,1.2|
5,4,2.5|
5,5,4.6|
5,6,2.2|
5,7,6.8|
6,0,4.3|
6,1,0.059|
6,2,7.7|
6,3,6.1|
6,4,9|
6,5,8.1|
6,6,4.1|
6,7,7.8|
7,0,2.2|
7,1,6.5|
7,2,6.8|
7,3,1.6|
7,4,4.2|
7,5,7.5|
7,6,7.9|
7,7,2.9|
];
constraint_x12_x11=[
0,0,8.2|
0,1,2.4|
0,2,9.9|
0,3,6.1|
0,4,8.8|
0,5,2.4|
0,6,7|
0,7,2.6|
1,0,1.3|
1,1,8.4|
1,2,0.47|
1,3,6.9|
1,4,4.6|
1,5,8.8|
1,6,4.2|
1,7,7.2|
2,0,2.8|
2,1,0.64|
2,2,0.86|
2,3,2.6|
2,4,9.1|
2,5,5.7|
2,6,2.6|
2,7,6.6|
3,0,8.3|
3,1,9.5|
3,2,10|
3,3,9.3|
3,4,2.1|
3,5,1|
3,6,8.4|
3,7,0.22|
4,0,1.7|
4,1,6.3|
4,2,7.8|
4,3,6.5|
4,4,3.1|
4,5,8.7|
4,6,7.4|
4,7,4.2|
5,0,2.2|
5,1,6.9|
5,2,1.1|
5,3,4.8|
5,4,4.5|
5,5,5.6|
5,6,4.3|
5,7,3.7|
6,0,1.8|
6,1,7|
6,2,4.8|
6,3,4.9|
6,4,1.2|
6,5,8.1|
6,6,2.6|
6,7,0.37|
7,0,4.8|
7,1,7.9|
7,2,3.9|
7,3,1.3|
7,4,1.2|
7,5,5.6|
7,6,3.6|
7,7,8.5|
];
constraint_x13_x9=[
0,0,7.3|
0,1,0.25|
0,2,7|
0,3,10|
0,4,2.8|
0,5,1.5|
0,6,7.2|
0,7,0.039|
1,0,3.6|
1,1,4.2|
1,2,9.4|
1,3,3.5|
1,4,1.6|
1,5,1.2|
1,6,4.8|
1,7,3.8|
2,0,8.4|
2,1,0.083|
2,2,0.57|
2,3,7.1|
2,4,3.8|
2,5,5.8|
2,6,0.45|
2,7,9|
3,0,4.2|
3,1,4.9|
3,2,7.2|
3,3,8.8|
3,4,6.1|
3,5,4.6|
3,6,4.1|
3,7,2.9|
4,0,1.5|
4,1,7.8|
4,2,6.3|
4,3,6.9|
4,4,5.1|
4,5,1.8|
4,6,6.7|
4,7,8.6|
5,0,4|
5,1,3.1|
5,2,6|
5,3,9.8|
5,4,6.6|
5,5,3.9|
5,6,0.55|
5,7,2.2|
6,0,0.75|
6,1,4.8|
6,2,9|
6,3,5.7|
6,4,5.1|
6,5,4.7|
6,6,1.4|
6,7,4|
7,0,0.25|
7,1,7|
7,2,2.5|
7,3,2.3|
7,4,3.4|
7,5,9.1|
7,6,5.1|
7,7,9.9|
];
constraint_x14_x10=[
0,0,0.37|
0,1,3.9|
0,2,2.6|
0,3,1.2|
0,4,5.4|
0,5,4.1|
0,6,2.5|
0,7,8.3|
1,0,2|
1,1,7.6|
1,2,9.1|
1,3,1.7|
1,4,3.4|
1,5,5.7|
1,6,8.1|
1,7,7.3|
2,0,7.5|
2,1,1.8|
2,2,3|
2,3,4|
2,4,6.5|
2,5,5|
2,6,4.2|
2,7,7.8|
3,0,4.9|
3,1,2|
3,2,1.5|
3,3,6.6|
3,4,4.7|
3,5,10|
3,6,8.9|
3,7,8.7|
4,0,2.9|
4,1,6.4|
4,2,6.9|
4,3,1.7|
4,4,1.1|
4,5,7.6|
4,6,2|
4,7,9.2|
5,0,4.2|
5,1,5.8|
5,2,2.9|
5,3,0.55|
5,4,8.4|
5,5,0.24|
5,6,1|
5,7,4.7|
6,0,3.5|
6,1,2.6|
6,2,0.013|
6,3,0.42|
6,4,6.5|
6,5,8.7|
6,6,6.3|
6,7,5|
7,0,9.7|
7,1,7.6|
7,2,8.9|
7,3,2.1|
7,4,1.2|
7,5,8.8|
7,6,8.7|
7,7,1.2|
];
constraint_x14_x13=[
0,0,4.4|
0,1,2.8|
0,2,4.4|
0,3,5.5|
0,4,8.9|
0,5,8.6|
0,6,4.5|
0,7,1.2|
1,0,1.1|
1,1,8.1|
1,2,7.1|
1,3,1.4|
1,4,4.6|
1,5,7.3|
1,6,5.8|
1,7,0.93|
2,0,2.6|
2,1,3.5|
2,2,7.8|
2,3,2.1|
2,4,5.9|
2,5,1.7|
2,6,8.6|
2,7,5|
3,0,9.7|
3,1,3.9|
3,2,6.8|
3,3,2.8|
3,4,5|
3,5,4|
3,6,3.5|
3,7,7.9|
4,0,6.9|
4,1,6.1|
4,2,4.8|
4,3,1.2|
4,4,4.8|
4,5,3.5|
4,6,2.4|
4,7,2.1|
5,0,5.3|
5,1,2.5|
5,2,4.8|
5,3,5.2|
5,4,8|
5,5,4.3|
5,6,5.7|
5,7,0.88|
6,0,7.5|
6,1,9.8|
6,2,7.3|
6,3,5.5|
6,4,0.9|
6,5,6|
6,6,6.8|
6,7,6.2|
7,0,9.4|
7,1,2.6|
7,2,5.5|
7,3,5.1|
7,4,2.2|
7,5,2.4|
7,6,5.6|
7,7,1.4|
];
constraint_x15_x11=[
0,0,6.3|
0,1,3.1|
0,2,7.8|
0,3,8.5|
0,4,9.9|
0,5,0.98|
0,6,0.35|
0,7,1.7|
1,0,2.4|
1,1,8.7|
1,2,4.5|
1,3,5.1|
1,4,9.5|
1,5,4.4|
1,6,2.5|
1,7,0.69|
2,0,8.6|
2,1,6.1|
2,2,3.9|
2,3,9.5|
2,4,3.1|
2,5,5.5|
2,6,8|
2,7,8.5|
3,0,6|
3,1,7.9|
3,2,7.7|
3,3,8.5|
3,4,5.8|
3,5,6.5|
3,6,0.63|
3,7,1.9|
4,0,1.8|
4,1,0.26|
4,2,9.2|
4,3,9.7|
4,4,4.7|
4,5,4|
4,6,3.2|
4,7,6|
5,0,7.7|
5,1,2.8|
5,2,9.3|
5,3,2|
5,4,9.8|
5,5,0.44|
5,6,7.2|
5,7,2.6|
6,0,7.4|
6,1,8.4|
6,2,1.3|
6,3,5.4|
6,4,9.7|
6,5,4|
6,6,2.3|
6,7,2.5|
7,0,9.4|
7,1,9.5|
7,2,3.4|
7,3,6.4|
7,4,2.3|
7,5,6.1|
7,6,4.6|
7,7,8.4|
];
constraint_x15_x14=[
0,0,6.2|
0,1,6.5|
0,2,2.6|
0,3,8.1|
0,4,2|
0,5,3.2|
0,6,5.7|
0,7,2.6|
1,0,4.5|
1,1,0.17|
1,2,5.3|
1,3,6.4|
1,4,7.5|
1,5,2.9|
1,6,5.7|
1,7,7.2|
2,0,6.6|
2,1,0.79|
2,2,5|
2,3,2.3|
2,4,3.2|
2,5,9.2|
2,6,4.1|
2,7,7.6|
3,0,6.5|
3,1,8.6|
3,2,4.2|
3,3,7.9|
3,4,1.8|
3,5,0.39|
3,6,8.1|
3,7,7.3|
4,0,8.8|
4,1,7.9|
4,2,4.2|
4,3,1.8|
4,4,6.1|
4,5,5.9|
4,6,4.5|
4,7,8.9|
5,0,2.5|
5,1,2.7|
5,2,2.5|
5,3,6.3|
5,4,2.7|
5,5,9|
5,6,0.48|
5,7,4.8|
6,0,6.3|
6,1,9.2|
6,2,8.6|
6,3,7.1|
6,4,0.9|
6,5,5.7|
6,6,1.3|
6,7,8.6|
7,0,8.2|
7,1,1.5|
7,2,7.3|
7,3,3|
7,4,0.67|
7,5,8.1|
7,6,9.8|
7,7,0.083|
];
constraint_x16_x12=[
0,0,0.68|
0,1,4.2|
0,2,5|
0,3,8.8|
0,4,6.6|
0,5,8.7|
0,6,2.1|
0,7,8.8|
1,0,8.3|
1,1,7.5|
1,2,7.1|
1,3,1.4|
1,4,1.5|
1,5,8.4|
1,6,3.4|
1,7,2.8|
2,0,1.1|
2,1,6.3|
2,2,1.2|
2,3,4.5|
2,4,5.5|
2,5,1.6|
2,6,8.4|
2,7,7.9|
3,0,0.16|
3,1,4.8|
3,2,7.1|
3,3,4.4|
3,4,5.2|
3,5,4.9|
3,6,1.5|
3,7,7.5|
4,0,1.2|
4,1,6.1|
4,2,5.8|
4,3,3.7|
4,4,7|
4,5,9.6|
4,6,7.8|
4,7,5.5|
5,0,8.8|
5,1,8.2|
5,2,9.7|
5,3,7.8|
5,4,2.3|
5,5,8.8|
5,6,8.8|
5,7,9.7|
6,0,0.94|
6,1,0.34|
6,2,3.3|
6,3,3.1|
6,4,8.6|
6,5,2.8|
6,6,5.6|
6,7,0.34|
7,0,6|
7,1,9.6|
7,2,2.4|
7,3,2.2|
7,4,8.6|
7,5,4.5|
7,6,6.3|
7,7,5.9|
];
constraint_x16_x15=[
0,0,9.6|
0,1,5.3|
0,2,8.3|
0,3,3|
0,4,5.8|
0,5,8.4|
0,6,4.8|
0,7,5.1|
1,0,7.7|
1,1,8.8|
1,2,4.6|
1,3,6|
1,4,7.6|
1,5,7.6|
1,6,0.73|
1,7,3.3|
2,0,5|
2,1,9.6|
2,2,1.7|
2,3,2.6|
2,4,9.2|
2,5,4.6|
2,6,7.6|
2,7,1.7|
3,0,7.5|
3,1,2.4|
3,2,5.6|
3,3,0.41|
3,4,9.6|
3,5,8.6|
3,6,4.5|
3,7,6.3|
4,0,4.2|
4,1,0.11|
4,2,0.87|
4,3,4.4|
4,4,7.6|
4,5,4.1|
4,6,9|
4,7,6.8|
5,0,4.8|
5,1,4.4|
5,2,3|
5,3,8.3|
5,4,6.7|
5,5,4.3|
5,6,2.6|
5,7,6.8|
6,0,7.3|
6,1,0.67|
6,2,2.2|
6,3,0.42|
6,4,8|
6,5,2.9|
6,6,3.1|
6,7,3.2|
7,0,4.4|
7,1,5.1|
7,2,6.3|
7,3,9.3|
7,4,3.2|
7,5,3.2|
7,6,4.3|
7,7,3.6|
];
constraint_x17_x13=[
0,0,6.1|
0,1,1.5|
0,2,0.96|
0,3,4.6|
0,4,8.6|
0,5,8.5|
0,6,3.8|
0,7,5.5|
1,0,3.7|
1,1,4|
1,2,2.3|
1,3,9.5|
1,4,7.9|
1,5,3.8|
1,6,2.5|
1,7,9.6|
2,0,3.3|
2,1,5.7|
2,2,6.6|
2,3,2.2|
2,4,7.4|
2,5,3.6|
2,6,4.1|
2,7,9.4|
3,0,9.6|
3,1,9.8|
3,2,5|
3,3,4.3|
3,4,6|
3,5,1.8|
3,6,5.3|
3,7,5.9|
4,0,5.7|
4,1,9.6|
4,2,8.5|
4,3,2.1|
4,4,7.5|
4,5,2.5|
4,6,7.7|
4,7,7.6|
5,0,5.9|
5,1,4.1|
5,2,4.3|
5,3,9.9|
5,4,7.9|
5,5,6.8|
5,6,0.82|
5,7,5.5|
6,0,4.4|
6,1,8|
6,2,7.1|
6,3,2.6|
6,4,8.2|
6,5,3.2|
6,6,4.5|
6,7,5.4|
7,0,1.9|
7,1,2.5|
7,2,8.3|
7,3,8.1|
7,4,2.8|
7,5,4.2|
7,6,7.2|
7,7,3.7|
];
constraint_x18_x14=[
0,0,0.86|
0,1,3.6|
0,2,0.81|
0,3,0.63|
0,4,1.8|
0,5,2.5|
0,6,8|
0,7,1|
1,0,7.3|
1,1,7|
1,2,8.8|
1,3,4.7|
1,4,9.6|
1,5,1.4|
1,6,6.4|
1,7,8.7|
2,0,4.5|
2,1,0.84|
2,2,4.6|
2,3,8.8|
2,4,5.7|
2,5,6.8|
2,6,7.6|
2,7,9|
3,0,8.2|
3,1,5|
3,2,1.7|
3,3,9.2|
3,4,1.4|
3,5,7.3|
3,6,4.7|
3,7,4.2|
4,0,1.9|
4,1,2|
4,2,4.5|
4,3,9.1|
4,4,3.6|
4,5,0.79|
4,6,2.3|
4,7,1.2|
5,0,3|
5,1,7.5|
5,2,6.6|
5,3,9.8|
5,4,6.4|
5,5,6.6|
5,6,3.3|
5,7,2.4|
6,0,0.61|
6,1,2.1|
6,2,1.9|
6,3,0.063|
6,4,8.4|
6,5,5.1|
6,6,5.8|
6,7,7.7|
7,0,4.1|
7,1,10|
7,2,1.9|
7,3,1.1|
7,4,7.7|
7,5,7.6|
7,6,1.6|
7,7,1.6|
];
constraint_x19_x15=[
0,0,1.3|
0,1,8.1|
0,2,7.5|
0,3,1.8|
0,4,7.7|
0,5,8.6|
0,6,2.8|
0,7,0.69|
1,0,0.58|
1,1,6.3|
1,2,4.2|
1,3,5.1|
1,4,5.3|
1,5,9.9|
1,6,4.4|
1,7,5.1|
2,0,5.9|
2,1,7|
2,2,9.5|
2,3,7.1|
2,4,7.3|
2,5,6|
2,6,2|
2,7,2.1|
3,0,10|
3,1,8.4|
3,2,9.4|
3,3,5.9|
3,4,9.9|
3,5,0.099|
3,6,9.2|
3,7,2.1|
4,0,0.00085|
4,1,3.8|
4,2,0.64|
4,3,9.3|
4,4,2.9|
4,5,3.5|
4,6,9.3|
4,7,3.6|
5,0,0.22|
5,1,9.3|
5,2,5.6|
5,3,4.2|
5,4,1.6|
5,5,6.1|
5,6,3.3|
5,7,0.27|
6,0,0.45|
6,1,3.1|
6,2,8.7|
6,3,4.6|
6,4,5.6|
6,5,9.8|
6,6,3.4|
6,7,6.8|
7,0,3.2|
7,1,9.9|
7,2,9.6|
7,3,5.2|
7,4,1|
7,5,7.1|
7,6,3.8|
7,7,0.96|
];
constraint_x20_x16=[
0,0,4.2|
0,1,3.7|
0,2,0.36|
0,3,8.5|
0,4,2.4|
0,5,5.1|
0,6,6.9|
0,7,5.9|
1,0,6.8|
1,1,0.31|
1,2,2.9|
1,3,5.8|
1,4,4.3|
1,5,4.3|
1,6,0.65|
1,7,8.6|
2,0,7.5|
2,1,3.7|
2,2,0.7|
2,3,5|
2,4,7.9|
2,5,9.4|
2,6,6.4|
2,7,0.65|
3,0,2.1|
3,1,8.7|
3,2,7.8|
3,3,2.4|
3,4,8.6|
3,5,2.3|
3,6,6.1|
3,7,9.5|
4,0,3.1|
4,1,1.2|
4,2,7.6|
4,3,10|
4,4,2.1|
4,5,0.022|
4,6,8.9|
4,7,0.68|
5,0,2.9|
5,1,7.7|
5,2,0.88|
5,3,8.8|
5,4,4.3|
5,5,3.5|
5,6,8.8|
5,7,6.4|
6,0,3.1|
6,1,3|
6,2,5.9|
6,3,8.9|
6,4,8.8|
6,5,6.7|
6,6,0.39|
6,7,4.4|
7,0,7.9|
7,1,5.5|
7,2,3.3|
7,3,4.5|
7,4,7.8|
7,5,9.1|
7,6,8.6|
7,7,6.2|
];
constraint_x1_y1=[
0,0,4.6|
0,1,5.8|
0,2,5.1|
0,3,7.7|
0,4,8.7|
0,5,7.9|
0,6,6.1|
0,7,4.1|
1,0,1.3|
1,1,5.9|
1,2,2.3|
1,3,6.6|
1,4,2.7|
1,5,9.4|
1,6,2.9|
1,7,2.2|
2,0,4.9|
2,1,0.51|
2,2,1.8|
2,3,0.98|
2,4,8.8|
2,5,8.8|
2,6,7|
2,7,3.9|
3,0,4.5|
3,1,1.8|
3,2,3.1|
3,3,9.7|
3,4,4.1|
3,5,7.2|
3,6,3.4|
3,7,3.8|
4,0,7.5|
4,1,8.2|
4,2,2.5|
4,3,3.2|
4,4,2.1|
4,5,3.4|
4,6,3.3|
4,7,6.8|
5,0,8.3|
5,1,6.4|
5,2,0.97|
5,3,8.3|
5,4,6.5|
5,5,5.6|
5,6,0.75|
5,7,9.6|
6,0,7.1|
6,1,3.1|
6,2,5.6|
6,3,3.7|
6,4,0.65|
6,5,0.16|
6,6,6.6|
6,7,7.3|
7,0,1.4|
7,1,6.5|
7,2,5.4|
7,3,3.2|
7,4,9.8|
7,5,5.7|
7,6,1.7|
7,7,5.5|
];
constraint_x2_y2=[
0,0,7.8|
0,1,6|
0,2,8.4|
0,3,8.3|
0,4,6.4|
0,5,3.6|
0,6,3.6|
0,7,5.6|
1,0,0.97|
1,1,0.8|
1,2,3.1|
1,3,7.2|
1,4,8.6|
1,5,6.3|
1,6,0.095|
1,7,4.1|
2,0,2.8|
2,1,2.8|
2,2,7.7|
2,3,9.4|
2,4,5.5|
2,5,3.5|
2,6,7.7|
2,7,1.3|
3,0,5.9|
3,1,6.1|
3,2,2.4|
3,3,7.7|
3,4,1.7|
3,5,5.9|
3,6,6.1|
3,7,2.9|
4,0,4.1|
4,1,2.4|
4,2,9.3|
4,3,3.1|
4,4,0.45|
4,5,9.5|
4,6,4.6|
4,7,3.8|
5,0,4.8|
5,1,9.2|
5,2,2|
5,3,9.7|
5,4,1.4|
5,5,6.9|
5,6,6.1|
5,7,6.3|
6,0,6.5|
6,1,1.5|
6,2,4.8|
6,3,5.2|
6,4,8.3|
6,5,1.7|
6,6,1.6|
6,7,9.9|
7,0,4.3|
7,1,7.1|
7,2,0.3|
7,3,2.9|
7,4,5.1|
7,5,1.6|
7,6,0.55|
7,7,1|
];
constraint_x3_y3=[
0,0,2|
0,1,8.8|
0,2,6.2|
0,3,0.65|
0,4,0.14|
0,5,1.8|
0,6,8.5|
0,7,9.4|
1,0,0.18|
1,1,4.1|
1,2,2.5|
1,3,9.4|
1,4,9.1|
1,5,4.5|
1,6,0.77|
1,7,1.8|
2,0,3|
2,1,7.4|
2,2,9.8|
2,3,8.1|
2,4,3.3|
2,5,2.9|
2,6,6.3|
2,7,8.7|
3,0,1.9|
3,1,3.3|
3,2,5.9|
3,3,4.4|
3,4,9.3|
3,5,5.7|
3,6,9.3|
3,7,4.9|
4,0,9|
4,1,6.4|
4,2,2.9|
4,3,3.7|
4,4,9.1|
4,5,2|
4,6,7.7|
4,7,2|
5,0,2.2|
5,1,3.8|
5,2,1.3|
5,3,1.9|
5,4,2.2|
5,5,1.9|
5,6,6.6|
5,7,6|
6,0,5.7|
6,1,0.31|
6,2,1.4|
6,3,6.8|
6,4,2.1|
6,5,1.5|
6,6,1.8|
6,7,8|
7,0,6.9|
7,1,1.5|
7,2,4.2|
7,3,5.2|
7,4,4|
7,5,0.38|
7,6,4.2|
7,7,1.3|
];
constraint_x4_y4=[
0,0,5.8|
0,1,6.7|
0,2,4.8|
0,3,9.7|
0,4,8.9|
0,5,2.9|
0,6,3.9|
0,7,2.8|
1,0,7.5|
1,1,7.9|
1,2,0.039|
1,3,3.5|
1,4,8|
1,5,7.9|
1,6,9.1|
1,7,7.2|
2,0,9|
2,1,3.8|
2,2,1.6|
2,3,2|
2,4,1.1|
2,5,4.2|
2,6,7.8|
2,7,0.71|
3,0,9.5|
3,1,0.88|
3,2,2.8|
3,3,9.7|
3,4,9.2|
3,5,3|
3,6,2.9|
3,7,1.8|
4,0,0.068|
4,1,0.25|
4,2,4.8|
4,3,8.5|
4,4,4.8|
4,5,9|
4,6,5.9|
4,7,0.044|
5,0,4.2|
5,1,3.8|
5,2,1.7|
5,3,3.2|
5,4,7.8|
5,5,3.7|
5,6,2.6|
5,7,9.5|
6,0,7.2|
6,1,7.2|
6,2,2.2|
6,3,4.9|
6,4,4.2|
6,5,2.9|
6,6,0.14|
6,7,8.7|
7,0,0.34|
7,1,0.82|
7,2,8.9|
7,3,1.7|
7,4,8.9|
7,5,7.7|
7,6,8.4|
7,7,5.4|
];
constraint_x5_y5=[
0,0,0.17|
0,1,2.3|
0,2,0.52|
0,3,2.5|
0,4,9.9|
0,5,7.3|
0,6,2.9|
0,7,7.3|
1,0,9.1|
1,1,0.12|
1,2,1.6|
1,3,8.7|
1,4,5.7|
1,5,0.62|
1,6,9.3|
1,7,5.3|
2,0,7.7|
2,1,3.7|
2,2,8.3|
2,3,2|
2,4,4.6|
2,5,5.8|
2,6,0.93|
2,7,7.4|
3,0,7.1|
3,1,5|
3,2,9.4|
3,3,2.5|
3,4,4.1|
3,5,3.2|
3,6,6.3|
3,7,1.4|
4,0,6.4|
4,1,1.2|
4,2,5.4|
4,3,1.7|
4,4,8.8|
4,5,8.4|
4,6,5.8|
4,7,6.8|
5,0,8.2|
5,1,0.55|
5,2,9.6|
5,3,9.4|
5,4,9.3|
5,5,3.6|
5,6,4.1|
5,7,9.7|
6,0,5.4|
6,1,2.4|
6,2,2.7|
6,3,6.5|
6,4,6.8|
6,5,4.5|
6,6,3.4|
6,7,7.7|
7,0,2.9|
7,1,4.8|
7,2,3.9|
7,3,1.9|
7,4,4.2|
7,5,6.2|
7,6,9.5|
7,7,1.1|
];
constraint_x6_y6=[
0,0,3.2|
0,1,5.8|
0,2,3.1|
0,3,7.7|
0,4,2.2|
0,5,2|
0,6,0.35|
0,7,1.6|
1,0,1.9|
1,1,9.7|
1,2,9.5|
1,3,5.2|
1,4,6.9|
1,5,9.7|
1,6,0.63|
1,7,0.04|
2,0,7.3|
2,1,6.7|
2,2,2.3|
2,3,6.4|
2,4,6.7|
2,5,9.5|
2,6,0.73|
2,7,3.1|
3,0,9.6|
3,1,3|
3,2,2.1|
3,3,9.7|
3,4,8.1|
3,5,2.7|
3,6,8|
3,7,1.7|
4,0,7.4|
4,1,7.7|
4,2,6.8|
4,3,8.3|
4,4,1.2|
4,5,3.2|
4,6,2.2|
4,7,7.3|
5,0,8.6|
5,1,4.1|
5,2,6.2|
5,3,7|
5,4,6.8|
5,5,7.6|
5,6,5|
5,7,8|
6,0,7.7|
6,1,7.9|
6,2,6.9|
6,3,3.1|
6,4,0.18|
6,5,9.7|
6,6,6.4|
6,7,7.8|
7,0,5.6|
7,1,7.1|
7,2,7.8|
7,3,4.3|
7,4,9|
7,5,2.4|
7,6,4|
7,7,4.6|
];
constraint_x7_y7=[
0,0,5|
0,1,9.1|
0,2,4.4|
0,3,8.1|
0,4,5.9|
0,5,5.7|
0,6,7|
0,7,8.3|
1,0,2|
1,1,5.7|
1,2,5.2|
1,3,5|
1,4,5|
1,5,9.4|
1,6,3.7|
1,7,8.6|
2,0,2.9|
2,1,4.6|
2,2,9.5|
2,3,9.9|
2,4,6.5|
2,5,2.4|
2,6,6.6|
2,7,5.5|
3,0,8.9|
3,1,2.6|
3,2,8.4|
3,3,2|
3,4,6.5|
3,5,5.1|
3,6,2.6|
3,7,7.5|
4,0,9.6|
4,1,1.4|
4,2,5.9|
4,3,0.62|
4,4,7.1|
4,5,5.7|
4,6,4.4|
4,7,0.26|
5,0,2.6|
5,1,8.1|
5,2,0.42|
5,3,2.9|
5,4,4.7|
5,5,8.7|
5,6,0.72|
5,7,7|
6,0,4.1|
6,1,8|
6,2,1.4|
6,3,3.9|
6,4,6.1|
6,5,2|
6,6,1.1|
6,7,2.7|
7,0,6.1|
7,1,0.98|
7,2,8|
7,3,1.8|
7,4,1.1|
7,5,6.1|
7,6,1.4|
7,7,9.8|
];
constraint_x8_y8=[
0,0,2.2|
0,1,1.9|
0,2,4.7|
0,3,4.6|
0,4,2.1|
0,5,1.4|
0,6,1.8|
0,7,5.6|
1,0,2.2|
1,1,9.8|
1,2,5.2|
1,3,2.2|
1,4,4.8|
1,5,8.1|
1,6,1.5|
1,7,6.5|
2,0,7.6|
2,1,4.4|
2,2,8.9|
2,3,7|
2,4,0.72|
2,5,4.4|
2,6,2.6|
2,7,2.4|
3,0,10|
3,1,9.9|
3,2,4.1|
3,3,8.8|
3,4,7.9|
3,5,2.9|
3,6,6.2|
3,7,5.5|
4,0,0.38|
4,1,4.7|
4,2,5.7|
4,3,7.1|
4,4,8|
4,5,8.5|
4,6,7.3|
4,7,1.5|
5,0,5.4|
5,1,0.54|
5,2,5.2|
5,3,8.5|
5,4,5.2|
5,5,7.4|
5,6,8|
5,7,7|
6,0,0.67|
6,1,2.6|
6,2,6.7|
6,3,2.9|
6,4,3|
6,5,8.2|
6,6,2.1|
6,7,6.9|
7,0,3.3|
7,1,3.9|
7,2,8.1|
7,3,9.5|
7,4,1.9|
7,5,3.9|
7,6,9.4|
7,7,9.4|
];
constraint_x9_y9=[
0,0,1.3|
0,1,5.1|
0,2,8.6|
0,3,8.6|
0,4,9.8|
0,5,1.9|
0,6,3.8|
0,7,4.8|
1,0,1.9|
1,1,9.4|
1,2,8.8|
1,3,9.1|
1,4,6.6|
1,5,5.8|
1,6,0.69|
1,7,4.3|
2,0,2|
2,1,5.1|
2,2,8.8|
2,3,0.92|
2,4,5.8|
2,5,4|
2,6,1.6|
2,7,1.5|
3,0,4.3|
3,1,9.1|
3,2,1.4|
3,3,7.6|
3,4,6|
3,5,8.6|
3,6,9|
3,7,0.73|
4,0,3.4|
4,1,4.1|
4,2,8.8|
4,3,0.59|
4,4,5.3|
4,5,4.3|
4,6,1.6|
4,7,6.7|
5,0,1.2|
5,1,8.7|
5,2,6.4|
5,3,6.6|
5,4,1.3|
5,5,2.8|
5,6,5.1|
5,7,4.6|
6,0,4.9|
6,1,5.5|
6,2,3.4|
6,3,5.6|
6,4,9.9|
6,5,6.3|
6,6,9|
6,7,7.2|
7,0,4.7|
7,1,1.8|
7,2,3.5|
7,3,9.4|
7,4,5.4|
7,5,4.7|
7,6,9.5|
7,7,0.63|
];
initial_distribution_y1=[0.011,0.14,0.053,0.23,0.15,0.17,0.19,0.055];
initial_distribution_y2=[0.17,0.11,0.21,0.064,0.12,0.11,0.089,0.13];
initial_distribution_y3=[0.15,0.23,0.24,0.032,0.1,0.073,0.075,0.093];
initial_distribution_y4=[0.036,0.0053,0.026,0.091,0.25,0.2,0.17,0.22];
initial_distribution_y5=[0.31,0.0049,0.11,0.098,0.12,0.23,0.086,0.036];
initial_distribution_y6=[0.19,0.16,0.18,0.12,0.016,0.12,0.19,0.027];
initial_distribution_y7=[0.017,0.18,0.19,0.086,0.19,0.15,0.036,0.15];
initial_distribution_y8=[0.032,0.027,0.18,0.041,0.23,0.17,0.25,0.077];
initial_distribution_y9=[0.056,0.071,0.2,0.24,0.099,0.24,0.083,0.019];
transition_y1=[
0.003,0.2,0.059,0.28,0.16,0.14,0.12,0.029|
0.14,0.18,0.11,0.1,0.23,0.16,0.029,0.033|
0.074,0.17,0.084,0.16,0.018,0.18,0.11,0.2|
0.17,0.13,0.16,0.0026,0.16,0.025,0.19,0.16|
0.22,0.18,0.095,0.021,0.36,0.076,0.038,0.017|
0.1,0.24,0.092,0.14,0.1,0.12,0.19,0.016|
0.12,0.092,0.12,0.064,0.14,0.18,0.21,0.071|
0.16,0.029,0.12,0.12,0.15,0.13,0.13,0.17|
];
transition_y2=[
0.094,0.15,0.092,0.057,0.091,0.2,0.15,0.17|
0.17,0.078,0.044,0.0041,0.074,0.24,0.3,0.087|
0.13,0.15,0.053,0.2,0.12,0.14,0.089,0.12|
0.093,0.12,0.16,0.12,0.16,0.19,0.08,0.088|
0.083,0.23,0.21,0.19,0.093,0.049,0.14,0.0058|
0.07,0.2,0.031,0.24,0.067,0.031,0.14,0.22|
0.13,0.15,0.087,0.039,0.12,0.14,0.17,0.16|
0.18,0.14,0.077,0.059,0.17,0.13,0.12,0.12|
];
transition_y3=[
0.19,0.034,0.13,0.18,0.15,0.18,0.075,0.063|
0.17,0.14,0.067,0.0037,0.074,0.19,0.19,0.16|
0.1,0.16,0.17,0.018,0.18,0.024,0.16,0.19|
0.14,0.16,0.18,0.052,0.16,0.12,0.053,0.14|
0.044,0.22,0.16,0.037,0.044,0.22,0.13,0.14|
0.033,0.17,0.37,0.099,0.11,0.061,0.1,0.058|
0.12,0.14,0.083,0.11,0.081,0.21,0.13,0.13|
0.2,0.052,0.14,0.18,0.099,0.12,0.011,0.21|
];
transition_y4=[
0.17,0.15,0.051,0.13,0.072,0.097,0.21,0.12|
0.069,0.071,0.011,0.19,0.11,0.13,0.21,0.22|
0.042,0.0059,0.2,0.12,0.14,0.11,0.22,0.17|
0.12,0.11,0.17,0.17,0.03,0.18,0.13,0.098|
0.19,0.093,0.021,0.11,0.077,0.18,0.2,0.12|
0.17,0.02,0.22,0.051,0.14,0.19,0.071,0.13|
0.14,0.13,0.09,0.098,0.055,0.18,0.12,0.18|
0.01,0.11,0.2,0.12,0.15,0.15,0.12,0.15|
];
transition_y5=[
0.14,0.061,0.22,0.056,0.16,0.13,0.16,0.084|
0.043,0.33,0.0073,0.16,0.19,0.075,0.15,0.035|
0.15,0.11,0.08,0.16,0.17,0.12,0.14,0.062|
0.11,0.025,0.099,0.19,0.19,0.17,0.11,0.12|
0.3,0.016,0.046,0.061,0.26,0.058,0.22,0.038|
0.12,0.2,0.096,0.15,0.13,0.032,0.081,0.19|
0.076,0.098,0.052,0.16,0.07,0.2,0.2,0.15|
0.21,0.063,0.15,0.096,0.23,0.0092,0.081,0.16|
];
transition_y6=[
0.049,0.0067,0.19,0.28,0.2,0.022,0.05,0.2|
0.1,0.13,0.13,0.18,0.11,0.18,0.083,0.077|
0.26,0.13,0.22,0.072,0.26,0.0043,0.0095,0.041|
0.11,0.081,0.026,0.22,0.12,0.17,0.15,0.13|
0.068,0.11,0.18,0.15,0.078,0.16,0.068,0.18|
0.15,0.065,0.13,0.083,0.16,0.11,0.15,0.14|
0.11,0.15,0.21,0.11,0.15,0.024,0.19,0.048|
0.13,0.054,0.1,0.044,0.18,0.14,0.21,0.14|
];
transition_y7=[
0.096,0.17,0.033,0.0042,0.23,0.23,0.036,0.2|
0.25,0.053,0.016,0.21,0.15,0.19,0.12,0.0062|
0.081,0.13,0.15,0.13,0.028,0.19,0.067,0.22|
0.09,0.13,0.17,0.081,0.16,0.12,0.05,0.21|
0.027,0.13,0.14,0.0034,0.26,0.09,0.17,0.18|
0.14,0.25,0.23,0.026,0.068,0.0053,0.013,0.27|
0.072,0.16,0.11,0.15,0.12,0.17,0.16,0.049|
0.088,0.14,0.12,0.16,0.045,0.08,0.18,0.2|
];
transition_y8=[
0.19,0.045,0.16,0.19,0.21,0.096,0.0084,0.1|
0.11,0.066,0.16,0.17,0.11,0.18,0.029,0.17|
0.24,0.075,0.22,0.21,0.19,0.01,0.0043,0.055|
0.13,0.15,0.17,0.15,0.2,0.032,0.05,0.13|
0.21,0.023,0.013,0.23,0.15,0.18,0.094,0.11|
0.13,0.041,0.21,0.14,0.11,0.0038,0.21,0.16|
0.19,0.074,0.042,0.096,0.24,0.084,0.17,0.11|
0.19,0.0073,0.028,0.13,0.13,0.22,0.057,0.23|
];
transition_y9=[
0.18,0.053,0.25,0.2,0.12,0.03,0.035,0.13|
0.23,0.0026,0.13,0.12,0.15,0.14,0.021,0.2|
0.12,0.2,0.025,0.18,0.16,0.14,0.031,0.15|
0.1,0.032,0.22,0.037,0.071,0.14,0.27,0.13|
0.22,0.1,0.067,0.017,0.13,0.2,0.22,0.047|
0.04,0.21,0.12,0.15,0.064,0.18,0.095,0.14|
0.055,0.13,0.15,0.14,0.16,0.16,0.04,0.16|
0.15,0.15,0.065,0.14,0.075,0.13,0.17,0.12|
];
